10  537
1   5   17    18    22    44    25    
2   4   31    11    40    30    
3   5   1    42    49    12    20    
4   6   46    36    48    4    34    35    
5   3   6    37    14    
6   7   21    26    2    38    43    5    45    
7   5   47    16    8    33    28    
8   5   7    3    39    24    9    
9   6   27    41    23    50    29    10    
10   4   13    19    32    15    

